;; sequence(s): A330248
;; terms: 1 0 0 1 1 0 0 3 1 0 0 1 3 0 2 1 1 0 0 3
;; small program: loop((loop(((if (((loop(((if ((loop(x + x, x, 1) mod (1 + x)) - 1) <= 0 then 1 else x) + x) mod 2, x mod 2, 1 + x) + x) mod 2) mod (1 + x)) <= 0 then 1 else 2) - 1) + x, x, x) - x) + y, x, 1) - x
;; fast program: loop((loop(((if (((loop(((if (((1 + loop(x + x, x div 2, 1)) mod (1 + x)) - 2) <= 0 then 1 else x) + x) mod 2, x mod 2, 1 + x) + x) mod 2) mod (1 + x)) <= 0 then 1 else 2) - 1) + x, x div 2, x) - x) + y, x, 1) - x
(set-logic UFNIA)
(define-fun divf ((a Int) (b Int)) Int (ite (< 0 b) (div a b) (div (- a) (- b))))
(define-fun modf ((a Int) (b Int)) Int (ite (< 0 b) (mod a b) (- (mod (- a) (- b)))))
(declare-fun f3 (Int) Int)
(declare-fun g3 (Int) Int)
(declare-fun h3 () Int)
(declare-fun u3 (Int Int) Int)
(declare-fun v3 (Int) Int)
(declare-fun f2 (Int) Int)
(declare-fun g2 (Int) Int)
(declare-fun h2 (Int) Int)
(declare-fun u2 (Int Int) Int)
(declare-fun v2 (Int) Int)
(declare-fun f1 (Int) Int)
(declare-fun g1 (Int) Int)
(declare-fun h1 (Int) Int)
(declare-fun u1 (Int Int) Int)
(declare-fun v1 (Int) Int)
(declare-fun f0 (Int Int) Int)
(declare-fun g0 (Int) Int)
(declare-fun h0 () Int)
(declare-fun u0 (Int Int) Int)
(declare-fun v0 (Int) Int)
(declare-fun small (Int) Int)
(declare-fun f7 (Int) Int)
(declare-fun g7 (Int) Int)
(declare-fun h7 () Int)
(declare-fun u7 (Int Int) Int)
(declare-fun v7 (Int) Int)
(declare-fun f6 (Int) Int)
(declare-fun g6 (Int) Int)
(declare-fun h6 (Int) Int)
(declare-fun u6 (Int Int) Int)
(declare-fun v6 (Int) Int)
(declare-fun f5 (Int) Int)
(declare-fun g5 (Int) Int)
(declare-fun h5 (Int) Int)
(declare-fun u5 (Int Int) Int)
(declare-fun v5 (Int) Int)
(declare-fun f4 (Int Int) Int)
(declare-fun g4 (Int) Int)
(declare-fun h4 () Int)
(declare-fun u4 (Int Int) Int)
(declare-fun v4 (Int) Int)
(declare-fun fast (Int) Int)
(assert (forall ((x Int)) (= (f3 x) (+ x x))))
(assert (forall ((x Int)) (= (g3 x) x)))
(assert (= h3 1))
(assert (forall ((x Int) (y Int)) (= (u3 x y) (ite (<= x 0) y (f3 (u3 (- x 1) y))))))
(assert (forall ((x Int)) (= (v3 x) (u3 (g3 x) h3))))
(assert (forall ((x Int)) (= (f2 x) (modf (+ (ite (<= (- (modf (v3 x) (+ 1 x)) 1) 0) 1 x) x) 2))))
(assert (forall ((x Int)) (= (g2 x) (modf x 2))))
(assert (forall ((x Int)) (= (h2 x) (+ 1 x))))
(assert (forall ((x Int) (y Int)) (= (u2 x y) (ite (<= x 0) y (f2 (u2 (- x 1) y))))))
(assert (forall ((x Int)) (= (v2 x) (u2 (g2 x) (h2 x)))))
(assert (forall ((x Int)) (= (f1 x) (+ (- (ite (<= (modf (modf (+ (v2 x) x) 2) (+ 1 x)) 0) 1 2) 1) x))))
(assert (forall ((x Int)) (= (g1 x) x)))
(assert (forall ((x Int)) (= (h1 x) x)))
(assert (forall ((x Int) (y Int)) (= (u1 x y) (ite (<= x 0) y (f1 (u1 (- x 1) y))))))
(assert (forall ((x Int)) (= (v1 x) (u1 (g1 x) (h1 x)))))
(assert (forall ((x Int) (y Int)) (= (f0 x y) (+ (- (v1 x) x) y))))
(assert (forall ((x Int)) (= (g0 x) x)))
(assert (= h0 1))
(assert (forall ((x Int) (y Int)) (= (u0 x y) (ite (<= x 0) y (f0 (u0 (- x 1) y) x)))))
(assert (forall ((x Int)) (= (v0 x) (u0 (g0 x) h0))))
(assert (forall ((x Int)) (= (small x) (- (v0 x) x))))
(assert (forall ((x Int)) (= (f7 x) (+ x x))))
(assert (forall ((x Int)) (= (g7 x) (divf x 2))))
(assert (= h7 1))
(assert (forall ((x Int) (y Int)) (= (u7 x y) (ite (<= x 0) y (f7 (u7 (- x 1) y))))))
(assert (forall ((x Int)) (= (v7 x) (u7 (g7 x) h7))))
(assert (forall ((x Int)) (= (f6 x) (modf (+ (ite (<= (- (modf (+ 1 (v7 x)) (+ 1 x)) 2) 0) 1 x) x) 2))))
(assert (forall ((x Int)) (= (g6 x) (modf x 2))))
(assert (forall ((x Int)) (= (h6 x) (+ 1 x))))
(assert (forall ((x Int) (y Int)) (= (u6 x y) (ite (<= x 0) y (f6 (u6 (- x 1) y))))))
(assert (forall ((x Int)) (= (v6 x) (u6 (g6 x) (h6 x)))))
(assert (forall ((x Int)) (= (f5 x) (+ (- (ite (<= (modf (modf (+ (v6 x) x) 2) (+ 1 x)) 0) 1 2) 1) x))))
(assert (forall ((x Int)) (= (g5 x) (divf x 2))))
(assert (forall ((x Int)) (= (h5 x) x)))
(assert (forall ((x Int) (y Int)) (= (u5 x y) (ite (<= x 0) y (f5 (u5 (- x 1) y))))))
(assert (forall ((x Int)) (= (v5 x) (u5 (g5 x) (h5 x)))))
(assert (forall ((x Int) (y Int)) (= (f4 x y) (+ (- (v5 x) x) y))))
(assert (forall ((x Int)) (= (g4 x) x)))
(assert (= h4 1))
(assert (forall ((x Int) (y Int)) (= (u4 x y) (ite (<= x 0) y (f4 (u4 (- x 1) y) x)))))
(assert (forall ((x Int)) (= (v4 x) (u4 (g4 x) h4))))
(assert (forall ((x Int)) (= (fast x) (- (v4 x) x))))
(assert (exists ((c Int)) (and (>= c 0) (not (= (small c) (fast c))))))
(check-sat)
